M+/Instances/S1-10-M+/S1-15-10-2-l-M+.txt
     100      10    0.15
       1       3       1       3       1       1       1       1       1       3      13      13      15       0      10      14      13      11       0       1       7
       1       1       2       3       1       1       1       3       2       1      11      16       0      13       1       0       6      16      15      10       4
       2       3       3       3       1       2       1       1       2       1      13      10      12       3      15       1      14      13       6      15       5
       3       1       1       3       1       1       2       3       2       2      12       2       2      16      11      14       3      14      14       5       7
       2       2       2       1       2       3       3       1       3       2       0      11      11       2       4       6      16       8       5       3       6
       3       2       2       3       3       2       3       3       2       1       8       7      16      14       3      15       6       6      13      10       6
       1       2       2       3       1       3       3       2       1       3       0       5      13       1       2       4      15       9      16      10       5
       3       1       1       2       2       2       1       2       1       2      16       3       6       8       9      14      16      10      16      16       7
       1       1       1       2       2       1       3       2       1       2      12       6      12       9       9      10       2       8       4      13       7
       2       3       3       1       1       2       1       2       2       1       4       9      15      10       9       4       5       4      12       2       5
       3       1       3       1       2       2       1       3       1       1       3       4      13       4      10       7      14      15      10       5       5
       2       3       3       2       2       1       2       1       1       1       9       1       3       4      11      13       6       7      14       8       7
       2       2       3       1       1       1       2       1       3       2      12       5       6      15       0       7      13      11       6       2       4
       2       3       3       2       2       3       2       3       2       1       0       0       2      15      14       5      12       5      15       1       6
       2       2       2       3       2       3       3       2       3       1       0       8       9       1       0       9       0       5      14       8       7
       3       2       3       1       1       2       1       1       1       1      12       9      14       4       3      16      15      15      12       5       6
       2       2       2       3       1       3       1       3       3       2       6       0       7      13      13      12      11       3       2       9       5
       1       2       3       1       2       2       2       3       2       3       0       6       8      11       0      11       2      10       8      14       4
       3       3       3       3       2       2       1       1       1       2       6       7      12      13      13      13      15      10       2      16       7
       1       2       3       3       2       3       1       1       1       3      13       5      10       4       2       8      13      10      13      15       6
       3       3       2       1       2       2       3       2       1       2       9       3       1      14       1      11       3      15       2       2       7
       1       3       2       2       3       3       1       1       2       1       2       6       2       8      15       4      11       4       5       3       4
       2       1       2       1       1       1       2       1       1       1      13      11      16       2      14      10      14       3       2       4       6
       3       2       2       2       2       1       1       2       2       1       6       0       7      15       5      15       8      14      15       5       7
       3       2       1       3       3       2       3       2       3       1       3       1       8       2      14      11       4      10      15      14       5
       2       3       2       2       1       2       1       1       2       1       5       3       7       2       9       5      16       4       5       3       6
       1       1       1       1       2       3       3       3       1       2      10      12      14       9       7      11      15       1       0      11       6
       3       2       2       2       1       1       1       1       1       1      12       0       6       6      16       2      14       9      12      13       6
       1       1       3       2       2       3       2       1       1       2       2      14       2       7      11       5       3      10       2       4       5
       1       2       3       1       2       3       2       3       1       2       4       1       3       7      11       7       3       2       8       7       4
       3       2       3       1       2       1       3       2       1       3       8       2       1       5       6       8       5       6       3       5       4
       3       1       1       1       1       2       2       2       3       2       4      14      11      15       1       7      11       1      16       8       4
       2       3       1       1       3       3       2       1       2       3       9       3      13       5      10       1       7      12       4       5       6
       3       1       3       2       2       3       3       2       1       2       0       4       8      11       2      12      14       1      16       0       5
       2       3       1       1       3       2       1       2       2       3      13      10      13       9      14      14      14      12       6       4       4
       3       1       2       3       3       2       3       2       3       3       6      12      15       7       4       5       5      10       0       6       7
       3       2       1       2       3       2       1       2       1       3       3      10       0      13       1       2       4       5       9       3       7
       2       2       3       2       3       2       2       1       3       3      10      13       0       3      13      14       6       4       3      14       5
       1       2       1       2       2       2       2       1       1       2      15       9       1       1       5      14       3       3      11       5       4
       3       1       2       3       1       1       2       2       2       1      15      14      13       3      16      12       7       2      16      15       4
       1       3       3       2       3       2       2       2       2       3      10      10      15       0       0      11      14      13       8      10       4
       3       2       1       1       1       1       3       1       1       3       8       9       6      12       2      10       6       5      15       4       4
       2       3       1       2       2       1       2       2       1       3       3       3       1       9       0       1       5      15      11       2       5
       3       1       2       1       2       2       3       2       1       2      12      14      12      11       7       7       7       2       4       7       4
       1       1       2       2       2       3       1       3       1       2      12       7      11       0       3       6       3       3       6      11       4
       1       2       3       3       2       3       1       3       1       1      10       5       1       3      11      15       8       5      12       1       4
       1       2       2       1       2       3       3       1       1       1      10      16      13       9      16       4       6      15      10      14       5
       1       1       2       2       1       2       3       1       1       1      12       2      11       5       7      10      11       9       8       5       7
       3       1       2       2       1       2       3       1       3       2       8       0      13       3       6       3       2      13       8      12       6
       2       2       1       1       3       1       2       3       3       3      16      15       9       5      13      13       4       0      16      10       7
       1       1       1       1       2       2       2       3       3       3       0      11       8       9       2       3      15      14      11      12       5
       1       3       3       1       1       1       3       3       1       2       0       7       5      11      13       9       6       2      14      12       6
       1       2       2       2       3       3       3       2       2       3      13      12       2      11       2      10       1      15       5       3       5
       2       3       3       2       2       3       1       3       3       2      13      15       9      16      11       2      15      13       3       1       4
       1       1       2       1       1       2       2       1       1       2       6      10       8       6      12       1       7       3      12      12       6
       3       3       3       2       1       3       1       1       3       3       6       5       3       0      16       2       4      14       0       9       5
       2       3       1       2       1       1       1       1       3       2       1      11      13      11      14       6      14       2       9      10       5
       1       2       2       2       2       3       3       2       2       1       2      12       9       6       4      10       6       6      16      10       4
       3       1       3       2       1       1       1       3       3       2       7      16       6      10       7      12      15      13       7      11       5
       3       1       1       1       2       2       1       3       1       1       7       4       4      12       5      15       4       7       7       9       5
       2       3       3       2       3       2       1       3       1       1      15       6       1       4       5      16       0       4       9       1       7
       3       2       3       3       2       1       2       3       3       2      14       6       4       4      15       8      14       7       1       6       5
       2       1       3       1       1       3       1       3       3       3       0      14       4       6      14       6      15       4      13       6       5
       1       3       3       1       3       3       3       2       3       3      11       0      15       1       6       1       1       0       3      14       7
       1       3       3       3       1       3       3       2       3       2      14       9       2      16       9       5      11       4      13       2       7
       2       2       1       2       1       3       2       2       3       1       8       1       8       8       7       5       3       9       6      10       7
       3       3       2       3       1       1       3       3       1       3      12      14       9      15       2      13       8       0       7       3       7
       2       2       3       2       2       2       1       1       1       2       5       2       8       4       4      10       3       0       7       5       6
       3       1       1       3       2       2       3       3       1       2       9      16      11       5       8       5      14       1       2       8       5
       3       3       1       1       3       1       3       1       2       3       8       5       2       2       0      14       9       1       7      13       6
       1       1       3       1       3       2       2       1       2       2       6       9      11       5      16      14      10      14       9       2       4
       2       2       2       1       1       1       3       2       2       2      15       3       8      14       1       1      15      16       6      15       4
       1       2       3       3       1       3       2       2       2       2      16      16      13       5       0      15       9      10      13      13       5
       2       3       1       1       3       3       3       1       1       2       6      13       0       6      13       3       6       5      12       6       7
       3       1       1       3       1       1       3       1       3       1      13       8       2       5       0       2       6       7      14       5       5
       3       2       3       1       3       2       1       2       2       2       9       2       4       0       2       6      13      15       1      12       7
       3       3       1       1       1       1       1       3       3       2      12      15       8       1      11       9      13       8       6      15       7
       3       1       2       3       1       2       1       1       3       2       6       0       1      10       3      11      14      11      16       2       5
       1       1       1       1       3       1       3       3       1       1      14       3      15      12       3       9      15      13       5      14       6
       1       1       1       1       3       1       2       2       2       1      12      16      16       0      12       1       8       9       6       2       6
       1       2       1       2       3       3       3       1       1       2       7      15       9       2       2       0      12       1       2      12       6
       3       1       3       2       1       2       2       2       2       1      14      10      15      15       0      14       8       5      10       6       6
       2       3       2       2       3       1       3       2       2       2      10      11      15       4       3       0       7       2       6      13       6
       1       3       1       1       2       2       3       1       2       3       2       1      15      13       0       0       5      14       1       9       6
       2       3       3       2       1       3       1       2       3       1      14      13       3       7       5      11       9       9       5      13       7
       1       3       2       3       2       3       1       3       2       3       7       9       0       2      14      11       2      11       6      12       7
       2       2       2       2       2       2       1       1       3       2      12       8       0       5       5       1       6       1       3      15       7
       3       2       3       1       1       3       2       3       1       1      12      12      10       0       8       5      12       6       4       8       7
       1       2       3       3       3       1       1       1       3       2       0      12      10      14      15      15      10       4      12      11       5
       1       1       1       3       3       2       3       2       3       2       2      11       4       4      10      11      11       6       6       8       5
       3       2       3       1       2       3       1       2       1       2      14      12      15       5      15       7       7       4       8       9       6
       1       1       1       1       1       2       1       2       2       3      15      10       9       9       8       2       6       3      11      10       6
       1       3       1       2       1       1       3       1       1       3       6       7       6      10       8       0       7       3      10      11       4
       1       3       2       2       1       1       1       3       2       3       7       8      13      10       5      14       9       0       6       5       5
       2       1       2       2       1       2       1       2       2       1       2       3       7       2      10       1       2       0       4      15       7
       3       1       2       2       1       2       1       1       1       1      13       5       1      13      10      12       2       9      15      15       4
       3       2       1       1       2       1       3       1       3       1       2       7      13       2       5      11      11      10       8       9       7
       1       3       2       2       1       3       1       3       3       3      12       3      15       4       5       2      15       7       5      12       5
       3       1       2       2       3       1       1       3       2       2      12       9       1      16       3       9       3      12       4      13       5
       2       3       1       3       2       3       2       3       2       3      13      13       2       0      11       4       1      15       6      11       7
      59      92      63      84      83      87      77      70      73      68
     218     201     215     183     189     219     209     139     161     135
     247     365     292     212     345     346     455     223     271     182