M+/results-log/S1-10-M+/S1-15-10-2-l-M+.log
CPXPARAM_Read_DataCheck                          1
Found incumbent of value 0.000000 after 0.00 sec. (0.03 ticks)
Tried aggregator 1 time.
MIP Presolve modified 7 coefficients.
Reduced MIP has 131 rows, 1010 columns, and 5040 nonzeros.
Reduced MIP has 1010 binaries, 0 generals, 0 SOSs, and 0 indicators.
Presolve time = 0.00 sec. (1.96 ticks)
Probing time = 0.00 sec. (1.41 ticks)
Tried aggregator 1 time.
Reduced MIP has 131 rows, 1010 columns, and 5040 nonzeros.
Reduced MIP has 1010 binaries, 0 generals, 0 SOSs, and 0 indicators.
Presolve time = 0.00 sec. (2.22 ticks)
Probing time = 0.01 sec. (1.41 ticks)
Clique table members: 1445.
MIP emphasis: balance optimality and feasibility.
MIP search method: dynamic search.
Parallel mode: deterministic, using up to 4 threads.
Root relaxation solution time = 0.00 sec. (2.38 ticks)

        Nodes                                         Cuts/
   Node  Left     Objective  IInf  Best Integer    Best Bound    ItCnt     Gap

*     0+    0                            0.0000     6135.0000              --- 
      0     0     3465.9642    10        0.0000     3465.9642      224     --- 
      0     0     2572.0592   178        0.0000     Cuts: 141      674     --- 
      0     0     2345.8546   315        0.0000     Cuts: 141     1212     --- 
*     0+    0                         2244.0000     2345.8546             4.54%
      0     0        cutoff           2244.0000     2244.0000     1639    0.00%
Elapsed time = 0.25 sec. (129.72 ticks, tree = 0.01 MB, solutions = 2)

Clique cuts applied:  295
Cover cuts applied:  21
Mixed integer rounding cuts applied:  50
Zero-half cuts applied:  6

Root node processing (before b&c):
  Real time             =    0.25 sec. (129.79 ticks)
Parallel b&c, 4 threads:
  Real time             =    0.00 sec. (0.00 ticks)
  Sync time (average)   =    0.00 sec.
  Wait time (average)   =    0.00 sec.
                          ------------
Total (root+branch&cut) =    0.25 sec. (129.79 ticks)
